c 
c G(k,n,p) graph
c graph gen seed     : 66438
c number of vertices : 70
c max number of edges: 1225
c number of classes  : 2
c edge density       : 0.400000
c edge probability   : 0.800000
c data structure     : dense
c
c           Graph Stats
c number of vertices  : 70
c nonisolated vertices: 70
c number of edges     : 889
c edge density        : 0.368116
c max degree          : 40
c avg degree          : 25.40
c min degree          : 15
p col 70 889
e 1 3
e 1 11
e 1 24
e 1 27
e 1 32
e 1 33
e 1 34
e 1 37
e 1 41
e 1 42
e 1 46
e 1 51
e 1 53
e 1 56
e 1 59
e 1 61
e 1 62
e 1 63
e 1 64
e 1 65
e 1 69
e 1 70
e 2 3
e 2 6
e 2 24
e 2 27
e 2 34
e 2 37
e 2 42
e 2 46
e 2 47
e 2 51
e 2 56
e 2 58
e 2 59
e 2 61
e 2 62
e 2 63
e 2 64
e 2 65
e 2 69
e 3 4
e 3 5
e 3 7
e 3 12
e 3 13
e 3 14
e 3 16
e 3 18
e 3 19
e 3 20
e 3 22
e 3 23
e 3 25
e 3 26
e 3 30
e 3 35
e 3 36
e 3 38
e 3 39
e 3 40
e 3 43
e 3 44
e 3 45
e 3 49
e 3 50
e 3 52
e 3 54
e 3 55
e 3 57
e 3 60
e 3 66
e 3 67
e 3 68
e 4 6
e 4 11
e 4 27
e 4 32
e 4 33
e 4 34
e 4 41
e 4 42
e 4 56
e 4 58
e 4 59
e 4 61
e 4 62
e 4 63
e 4 64
e 4 65
e 4 69
e 4 70
e 5 6
e 5 11
e 5 24
e 5 33
e 5 34
e 5 37
e 5 41
e 5 42
e 5 46
e 5 47
e 5 53
e 5 56
e 5 58
e 5 62
e 5 64
e 5 65
e 5 69
e 5 70
e 6 7
e 6 8
e 6 9
e 6 12
e 6 13
e 6 14
e 6 15
e 6 16
e 6 18
e 6 19
e 6 21
e 6 23
e 6 25
e 6 26
e 6 28
e 6 30
e 6 31
e 6 35
e 6 36
e 6 38
e 6 39
e 6 40
e 6 43
e 6 44
e 6 45
e 6 48
e 6 49
e 6 52
e 6 54
e 6 55
e 6 57
e 6 68
e 7 27
e 7 34
e 7 37
e 7 41
e 7 42
e 7 46
e 7 47
e 7 51
e 7 53
e 7 58
e 7 59
e 7 61
e 7 62
e 7 63
e 7 64
e 7 70
e 8 11
e 8 24
e 8 32
e 8 33
e 8 34
e 8 37
e 8 41
e 8 42
e 8 46
e 8 47
e 8 53
e 8 56
e 8 58
e 8 59
e 8 61
e 8 62
e 8 63
e 8 65
e 8 69
e 8 70
e 9 11
e 9 24
e 9 27
e 9 32
e 9 33
e 9 34
e 9 37
e 9 41
e 9 42
e 9 46
e 9 47
e 9 51
e 9 53
e 9 56
e 9 58
e 9 61
e 9 62
e 9 63
e 9 64
e 9 65
e 9 70
e 10 11
e 10 24
e 10 27
e 10 32
e 10 34
e 10 37
e 10 46
e 10 47
e 10 53
e 10 56
e 10 58
e 10 59
e 10 61
e 10 62
e 10 63
e 10 64
e 10 69
e 10 70
e 11 13
e 11 14
e 11 15
e 11 16
e 11 19
e 11 20
e 11 21
e 11 25
e 11 26
e 11 28
e 11 29
e 11 30
e 11 36
e 11 38
e 11 39
e 11 40
e 11 43
e 11 44
e 11 48
e 11 49
e 11 50
e 11 55
e 11 57
e 11 60
e 11 67
e 11 68
e 12 24
e 12 27
e 12 33
e 12 34
e 12 37
e 12 41
e 12 42
e 12 47
e 12 51
e 12 53
e 12 56
e 12 58
e 12 59
e 12 61
e 12 62
e 12 64
e 12 65
e 12 69
e 12 70
e 13 24
e 13 27
e 13 32
e 13 33
e 13 42
e 13 46
e 13 51
e 13 53
e 13 58
e 13 59
e 13 61
e 13 62
e 13 63
e 13 64
e 13 65
e 13 69
e 13 70
e 14 24
e 14 27
e 14 32
e 14 33
e 14 34
e 14 37
e 14 41
e 14 42
e 14 46
e 14 47
e 14 51
e 14 53
e 14 56
e 14 58
e 14 59
e 14 61
e 14 63
e 14 64
e 14 65
e 14 69
e 14 70
e 15 24
e 15 27
e 15 32
e 15 33
e 15 34
e 15 41
e 15 42
e 15 46
e 15 47
e 15 51
e 15 53
e 15 56
e 15 58
e 15 59
e 15 61
e 15 62
e 15 64
e 15 65
e 15 69
e 16 24
e 16 27
e 16 32
e 16 33
e 16 41
e 16 42
e 16 46
e 16 47
e 16 53
e 16 56
e 16 59
e 16 61
e 16 62
e 16 64
e 16 70
e 17 24
e 17 27
e 17 32
e 17 33
e 17 34
e 17 37
e 17 41
e 17 42
e 17 47
e 17 53
e 17 56
e 17 58
e 17 63
e 17 65
e 17 70
e 18 24
e 18 27
e 18 32
e 18 34
e 18 41
e 18 46
e 18 51
e 18 53
e 18 56
e 18 58
e 18 59
e 18 61
e 18 62
e 18 63
e 18 65
e 18 69
e 18 70
e 19 27
e 19 33
e 19 34
e 19 46
e 19 47
e 19 51
e 19 56
e 19 59
e 19 62
e 19 63
e 19 65
e 19 69
e 19 70
e 20 27
e 20 32
e 20 33
e 20 34
e 20 37
e 20 41
e 20 46
e 20 47
e 20 51
e 20 53
e 20 59
e 20 61
e 20 62
e 20 63
e 20 64
e 20 65
e 20 69
e 20 70
e 21 24
e 21 27
e 21 33
e 21 34
e 21 37
e 21 41
e 21 42
e 21 46
e 21 47
e 21 51
e 21 53
e 21 56
e 21 58
e 21 59
e 21 61
e 21 62
e 21 63
e 21 64
e 21 69
e 21 70
e 22 24
e 22 27
e 22 32
e 22 33
e 22 34
e 22 37
e 22 41
e 22 42
e 22 46
e 22 47
e 22 51
e 22 53
e 22 56
e 22 59
e 22 61
e 22 62
e 22 64
e 22 65
e 22 69
e 22 70
e 23 24
e 23 27
e 23 32
e 23 33
e 23 34
e 23 37
e 23 42
e 23 46
e 23 47
e 23 51
e 23 56
e 23 58
e 23 59
e 23 62
e 23 63
e 23 64
e 23 65
e 23 69
e 23 70
e 24 25
e 24 26
e 24 28
e 24 30
e 24 31
e 24 35
e 24 36
e 24 38
e 24 39
e 24 44
e 24 48
e 24 49
e 24 52
e 24 54
e 24 55
e 24 60
e 24 66
e 24 67
e 25 27
e 25 32
e 25 34
e 25 37
e 25 41
e 25 42
e 25 46
e 25 47
e 25 51
e 25 53
e 25 56
e 25 58
e 25 59
e 25 63
e 25 65
e 25 69
e 26 32
e 26 33
e 26 34
e 26 37
e 26 41
e 26 42
e 26 47
e 26 53
e 26 59
e 26 62
e 26 64
e 26 65
e 26 69
e 26 70
e 27 28
e 27 29
e 27 30
e 27 31
e 27 35
e 27 36
e 27 39
e 27 40
e 27 43
e 27 44
e 27 45
e 27 48
e 27 49
e 27 52
e 27 55
e 27 57
e 27 60
e 27 66
e 27 67
e 27 68
e 28 32
e 28 33
e 28 34
e 28 37
e 28 47
e 28 53
e 28 56
e 28 58
e 28 62
e 28 63
e 28 64
e 28 65
e 28 70
e 29 33
e 29 34
e 29 37
e 29 41
e 29 42
e 29 47
e 29 51
e 29 53
e 29 56
e 29 58
e 29 59
e 29 63
e 29 69
e 29 70
e 30 32
e 30 33
e 30 37
e 30 41
e 30 42
e 30 47
e 30 51
e 30 53
e 30 56
e 30 58
e 30 59
e 30 63
e 30 64
e 30 65
e 30 69
e 30 70
e 31 32
e 31 33
e 31 34
e 31 37
e 31 41
e 31 42
e 31 46
e 31 47
e 31 51
e 31 56
e 31 58
e 31 61
e 31 62
e 31 63
e 31 65
e 31 69
e 32 35
e 32 40
e 32 43
e 32 45
e 32 48
e 32 49
e 32 50
e 32 52
e 32 54
e 32 55
e 32 57
e 32 60
e 32 67
e 32 68
e 33 35
e 33 39
e 33 40
e 33 43
e 33 44
e 33 45
e 33 49
e 33 52
e 33 55
e 33 57
e 33 66
e 33 67
e 33 68
e 34 35
e 34 36
e 34 38
e 34 39
e 34 40
e 34 43
e 34 44
e 34 45
e 34 48
e 34 49
e 34 50
e 34 52
e 34 55
e 34 60
e 34 66
e 34 67
e 34 68
e 35 37
e 35 41
e 35 42
e 35 47
e 35 51
e 35 58
e 35 59
e 35 61
e 35 62
e 35 64
e 35 65
e 35 70
e 36 37
e 36 41
e 36 42
e 36 46
e 36 47
e 36 51
e 36 53
e 36 56
e 36 59
e 36 61
e 36 63
e 36 64
e 36 65
e 36 69
e 37 38
e 37 39
e 37 40
e 37 43
e 37 44
e 37 45
e 37 48
e 37 54
e 37 55
e 37 57
e 37 66
e 37 68
e 38 42
e 38 46
e 38 47
e 38 53
e 38 56
e 38 58
e 38 59
e 38 61
e 38 62
e 38 63
e 38 64
e 38 65
e 38 69
e 38 70
e 39 41
e 39 42
e 39 46
e 39 47
e 39 51
e 39 56
e 39 58
e 39 59
e 39 61
e 39 62
e 39 63
e 39 64
e 39 65
e 39 70
e 40 41
e 40 42
e 40 46
e 40 51
e 40 53
e 40 56
e 40 58
e 40 59
e 40 61
e 40 62
e 40 63
e 40 64
e 40 65
e 40 69
e 40 70
e 41 44
e 41 45
e 41 48
e 41 49
e 41 50
e 41 52
e 41 54
e 41 55
e 41 57
e 41 60
e 41 67
e 41 68
e 42 43
e 42 44
e 42 45
e 42 48
e 42 49
e 42 50
e 42 52
e 42 54
e 42 55
e 42 57
e 42 66
e 42 68
e 43 47
e 43 51
e 43 53
e 43 56
e 43 58
e 43 59
e 43 61
e 43 62
e 43 63
e 43 64
e 43 69
e 43 70
e 44 46
e 44 47
e 44 51
e 44 53
e 44 56
e 44 58
e 44 59
e 44 61
e 44 62
e 44 63
e 44 64
e 44 65
e 44 69
e 44 70
e 45 46
e 45 51
e 45 53
e 45 56
e 45 58
e 45 59
e 45 61
e 45 62
e 45 63
e 45 64
e 45 65
e 45 69
e 45 70
e 46 48
e 46 49
e 46 50
e 46 52
e 46 54
e 46 57
e 46 60
e 46 66
e 46 67
e 46 68
e 47 48
e 47 49
e 47 50
e 47 54
e 47 55
e 47 57
e 47 60
e 47 67
e 47 68
e 48 53
e 48 56
e 48 58
e 48 61
e 48 62
e 48 63
e 48 64
e 48 70
e 49 51
e 49 53
e 49 56
e 49 58
e 49 61
e 49 62
e 49 63
e 49 64
e 49 65
e 50 51
e 50 53
e 50 59
e 50 61
e 50 62
e 50 64
e 50 65
e 50 69
e 50 70
e 51 54
e 51 55
e 51 57
e 51 60
e 51 66
e 51 67
e 51 68
e 52 53
e 52 56
e 52 58
e 52 59
e 52 61
e 52 63
e 52 64
e 52 65
e 52 69
e 53 57
e 53 60
e 53 66
e 53 67
e 53 68
e 54 58
e 54 61
e 54 62
e 54 63
e 54 64
e 54 65
e 54 70
e 55 58
e 55 59
e 55 62
e 55 64
e 55 65
e 55 69
e 55 70
e 56 60
e 56 66
e 56 67
e 56 68
e 57 58
e 57 59
e 57 61
e 57 62
e 57 63
e 57 64
e 57 65
e 57 70
e 58 67
e 58 68
e 59 67
e 60 61
e 60 62
e 60 64
e 60 65
e 60 70
e 61 66
e 61 67
e 61 68
e 62 66
e 62 67
e 63 66
e 63 67
e 63 68
e 64 66
e 64 67
e 64 68
e 65 67
e 66 69
e 66 70
e 67 69
e 67 70
e 68 69
e 68 70
